tsp_instances/TSP50/instance84.tsp
NODE_COORD_SECTION
0 67 196
1 181 62
2 90 193
3 0 167
4 132 94
5 10 144
6 137 53
7 129 72
8 195 75
9 62 29
10 86 144
11 137 20
12 157 136
13 20 100
14 124 35
15 126 51
16 81 192
17 14 155
18 24 79
19 73 124
20 172 86
21 52 182
22 15 176
23 190 196
24 81 34
25 80 123
26 24 178
27 142 170
28 127 14
29 197 129
30 73 44
31 115 109
32 51 96
33 98 140
34 121 31
35 98 29
36 32 104
37 200 34
38 80 186
39 94 75
40 131 147
41 119 46
42 194 60
43 189 123
44 183 72
45 76 200
46 109 80
47 100 97
48 137 64
49 115 23
