tsp_instances/TSP50/instance84.opt.tour
TOUR_SECTION
1
22
27
23
4
18
6
37
14
19
33
20
26
11
34
32
48
47
40
31
10
25
36
50
29
12
35
15
42
16
7
49
8
5
21
45
2
38
43
9
44
30
24
13
41
28
3
39
17
46
-1